DIMENSION: 9
EDGE_WEIGHT_TYPE: EXPLICIT
EDGE_WEIGHT_FORMAT: FULL_MATRIX
EDGE_WEIGHT_SECTION:
32767 32767 29 76 7 59 32767 6 25 
32767 32767 1 90 27 75 19 15 65 
29 1 32767 5 54 32767 33 14 71 
76 90 5 32767 32767 16 68 32767 69 
7 27 54 32767 32767 85 12 32767 88 
59 75 32767 16 85 32767 34 32767 50 
32767 19 33 68 12 34 32767 31 100 
6 15 14 32767 32767 32767 31 32767 26 
25 65 71 69 88 50 100 26 32767 
EOF